c graph colorability of graph:
c random_regular_graph(5, 98).
c
c Generated with `cnfgen`
c (C) 2012-2016 Massimo Lauria <lauria.massimo@gmail.com>
c https://massimolauria.github.io/cnfgen
c
p cnf 294 1127
1 2 3 0
-1 -2 0
-1 -3 0
-2 -3 0
4 5 6 0
-4 -5 0
-4 -6 0
-5 -6 0
7 8 9 0
-7 -8 0
-7 -9 0
-8 -9 0
10 11 12 0
-10 -11 0
-10 -12 0
-11 -12 0
13 14 15 0
-13 -14 0
-13 -15 0
-14 -15 0
16 17 18 0
-16 -17 0
-16 -18 0
-17 -18 0
19 20 21 0
-19 -20 0
-19 -21 0
-20 -21 0
22 23 24 0
-22 -23 0
-22 -24 0
-23 -24 0
25 26 27 0
-25 -26 0
-25 -27 0
-26 -27 0
28 29 30 0
-28 -29 0
-28 -30 0
-29 -30 0
31 32 33 0
-31 -32 0
-31 -33 0
-32 -33 0
34 35 36 0
-34 -35 0
-34 -36 0
-35 -36 0
37 38 39 0
-37 -38 0
-37 -39 0
-38 -39 0
40 41 42 0
-40 -41 0
-40 -42 0
-41 -42 0
43 44 45 0
-43 -44 0
-43 -45 0
-44 -45 0
46 47 48 0
-46 -47 0
-46 -48 0
-47 -48 0
49 50 51 0
-49 -50 0
-49 -51 0
-50 -51 0
52 53 54 0
-52 -53 0
-52 -54 0
-53 -54 0
55 56 57 0
-55 -56 0
-55 -57 0
-56 -57 0
58 59 60 0
-58 -59 0
-58 -60 0
-59 -60 0
61 62 63 0
-61 -62 0
-61 -63 0
-62 -63 0
64 65 66 0
-64 -65 0
-64 -66 0
-65 -66 0
67 68 69 0
-67 -68 0
-67 -69 0
-68 -69 0
70 71 72 0
-70 -71 0
-70 -72 0
-71 -72 0
73 74 75 0
-73 -74 0
-73 -75 0
-74 -75 0
76 77 78 0
-76 -77 0
-76 -78 0
-77 -78 0
79 80 81 0
-79 -80 0
-79 -81 0
-80 -81 0
82 83 84 0
-82 -83 0
-82 -84 0
-83 -84 0
85 86 87 0
-85 -86 0
-85 -87 0
-86 -87 0
88 89 90 0
-88 -89 0
-88 -90 0
-89 -90 0
91 92 93 0
-91 -92 0
-91 -93 0
-92 -93 0
94 95 96 0
-94 -95 0
-94 -96 0
-95 -96 0
97 98 99 0
-97 -98 0
-97 -99 0
-98 -99 0
100 101 102 0
-100 -101 0
-100 -102 0
-101 -102 0
103 104 105 0
-103 -104 0
-103 -105 0
-104 -105 0
106 107 108 0
-106 -107 0
-106 -108 0
-107 -108 0
109 110 111 0
-109 -110 0
-109 -111 0
-110 -111 0
112 113 114 0
-112 -113 0
-112 -114 0
-113 -114 0
115 116 117 0
-115 -116 0
-115 -117 0
-116 -117 0
118 119 120 0
-118 -119 0
-118 -120 0
-119 -120 0
121 122 123 0
-121 -122 0
-121 -123 0
-122 -123 0
124 125 126 0
-124 -125 0
-124 -126 0
-125 -126 0
127 128 129 0
-127 -128 0
-127 -129 0
-128 -129 0
130 131 132 0
-130 -131 0
-130 -132 0
-131 -132 0
133 134 135 0
-133 -134 0
-133 -135 0
-134 -135 0
136 137 138 0
-136 -137 0
-136 -138 0
-137 -138 0
139 140 141 0
-139 -140 0
-139 -141 0
-140 -141 0
142 143 144 0
-142 -143 0
-142 -144 0
-143 -144 0
145 146 147 0
-145 -146 0
-145 -147 0
-146 -147 0
148 149 150 0
-148 -149 0
-148 -150 0
-149 -150 0
151 152 153 0
-151 -152 0
-151 -153 0
-152 -153 0
154 155 156 0
-154 -155 0
-154 -156 0
-155 -156 0
157 158 159 0
-157 -158 0
-157 -159 0
-158 -159 0
160 161 162 0
-160 -161 0
-160 -162 0
-161 -162 0
163 164 165 0
-163 -164 0
-163 -165 0
-164 -165 0
166 167 168 0
-166 -167 0
-166 -168 0
-167 -168 0
169 170 171 0
-169 -170 0
-169 -171 0
-170 -171 0
172 173 174 0
-172 -173 0
-172 -174 0
-173 -174 0
175 176 177 0
-175 -176 0
-175 -177 0
-176 -177 0
178 179 180 0
-178 -179 0
-178 -180 0
-179 -180 0
181 182 183 0
-181 -182 0
-181 -183 0
-182 -183 0
184 185 186 0
-184 -185 0
-184 -186 0
-185 -186 0
187 188 189 0
-187 -188 0
-187 -189 0
-188 -189 0
190 191 192 0
-190 -191 0
-190 -192 0
-191 -192 0
193 194 195 0
-193 -194 0
-193 -195 0
-194 -195 0
196 197 198 0
-196 -197 0
-196 -198 0
-197 -198 0
199 200 201 0
-199 -200 0
-199 -201 0
-200 -201 0
202 203 204 0
-202 -203 0
-202 -204 0
-203 -204 0
205 206 207 0
-205 -206 0
-205 -207 0
-206 -207 0
208 209 210 0
-208 -209 0
-208 -210 0
-209 -210 0
211 212 213 0
-211 -212 0
-211 -213 0
-212 -213 0
214 215 216 0
-214 -215 0
-214 -216 0
-215 -216 0
217 218 219 0
-217 -218 0
-217 -219 0
-218 -219 0
220 221 222 0
-220 -221 0
-220 -222 0
-221 -222 0
223 224 225 0
-223 -224 0
-223 -225 0
-224 -225 0
226 227 228 0
-226 -227 0
-226 -228 0
-227 -228 0
229 230 231 0
-229 -230 0
-229 -231 0
-230 -231 0
232 233 234 0
-232 -233 0
-232 -234 0
-233 -234 0
235 236 237 0
-235 -236 0
-235 -237 0
-236 -237 0
238 239 240 0
-238 -239 0
-238 -240 0
-239 -240 0
241 242 243 0
-241 -242 0
-241 -243 0
-242 -243 0
244 245 246 0
-244 -245 0
-244 -246 0
-245 -246 0
247 248 249 0
-247 -248 0
-247 -249 0
-248 -249 0
250 251 252 0
-250 -251 0
-250 -252 0
-251 -252 0
253 254 255 0
-253 -254 0
-253 -255 0
-254 -255 0
256 257 258 0
-256 -257 0
-256 -258 0
-257 -258 0
259 260 261 0
-259 -260 0
-259 -261 0
-260 -261 0
262 263 264 0
-262 -263 0
-262 -264 0
-263 -264 0
265 266 267 0
-265 -266 0
-265 -267 0
-266 -267 0
268 269 270 0
-268 -269 0
-268 -270 0
-269 -270 0
271 272 273 0
-271 -272 0
-271 -273 0
-272 -273 0
274 275 276 0
-274 -275 0
-274 -276 0
-275 -276 0
277 278 279 0
-277 -278 0
-277 -279 0
-278 -279 0
280 281 282 0
-280 -281 0
-280 -282 0
-281 -282 0
283 284 285 0
-283 -284 0
-283 -285 0
-284 -285 0
286 287 288 0
-286 -287 0
-286 -288 0
-287 -288 0
289 290 291 0
-289 -290 0
-289 -291 0
-290 -291 0
292 293 294 0
-292 -293 0
-292 -294 0
-293 -294 0
-1 -4 0
-2 -5 0
-3 -6 0
-1 -37 0
-2 -38 0
-3 -39 0
-1 -160 0
-2 -161 0
-3 -162 0
-1 -217 0
-2 -218 0
-3 -219 0
-1 -259 0
-2 -260 0
-3 -261 0
-4 -22 0
-5 -23 0
-6 -24 0
-4 -34 0
-5 -35 0
-6 -36 0
-4 -133 0
-5 -134 0
-6 -135 0
-4 -193 0
-5 -194 0
-6 -195 0
-7 -13 0
-8 -14 0
-9 -15 0
-7 -58 0
-8 -59 0
-9 -60 0
-7 -244 0
-8 -245 0
-9 -246 0
-7 -250 0
-8 -251 0
-9 -252 0
-7 -292 0
-8 -293 0
-9 -294 0
-10 -163 0
-11 -164 0
-12 -165 0
-10 -226 0
-11 -227 0
-12 -228 0
-10 -244 0
-11 -245 0
-12 -246 0
-10 -262 0
-11 -263 0
-12 -264 0
-10 -265 0
-11 -266 0
-12 -267 0
-13 -76 0
-14 -77 0
-15 -78 0
-13 -154 0
-14 -155 0
-15 -156 0
-13 -184 0
-14 -185 0
-15 -186 0
-13 -232 0
-14 -233 0
-15 -234 0
-16 -55 0
-17 -56 0
-18 -57 0
-16 -100 0
-17 -101 0
-18 -102 0
-16 -130 0
-17 -131 0
-18 -132 0
-16 -199 0
-17 -200 0
-18 -201 0
-16 -286 0
-17 -287 0
-18 -288 0
-19 -49 0
-20 -50 0
-21 -51 0
-19 -208 0
-20 -209 0
-21 -210 0
-19 -235 0
-20 -236 0
-21 -237 0
-19 -247 0
-20 -248 0
-21 -249 0
-19 -289 0
-20 -290 0
-21 -291 0
-22 -100 0
-23 -101 0
-24 -102 0
-22 -178 0
-23 -179 0
-24 -180 0
-22 -187 0
-23 -188 0
-24 -189 0
-22 -274 0
-23 -275 0
-24 -276 0
-25 -142 0
-26 -143 0
-27 -144 0
-25 -154 0
-26 -155 0
-27 -156 0
-25 -205 0
-26 -206 0
-27 -207 0
-25 -238 0
-26 -239 0
-27 -240 0
-25 -256 0
-26 -257 0
-27 -258 0
-28 -40 0
-29 -41 0
-30 -42 0
-28 -190 0
-29 -191 0
-30 -192 0
-28 -199 0
-29 -200 0
-30 -201 0
-28 -211 0
-29 -212 0
-30 -213 0
-28 -274 0
-29 -275 0
-30 -276 0
-31 -46 0
-32 -47 0
-33 -48 0
-31 -178 0
-32 -179 0
-33 -180 0
-31 -184 0
-32 -185 0
-33 -186 0
-31 -202 0
-32 -203 0
-33 -204 0
-31 -220 0
-32 -221 0
-33 -222 0
-34 -82 0
-35 -83 0
-36 -84 0
-34 -151 0
-35 -152 0
-36 -153 0
-34 -205 0
-35 -206 0
-36 -207 0
-34 -265 0
-35 -266 0
-36 -267 0
-37 -61 0
-38 -62 0
-39 -63 0
-37 -67 0
-38 -68 0
-39 -69 0
-37 -262 0
-38 -263 0
-39 -264 0
-37 -286 0
-38 -287 0
-39 -288 0
-40 -49 0
-41 -50 0
-42 -51 0
-40 -70 0
-41 -71 0
-42 -72 0
-40 -133 0
-41 -134 0
-42 -135 0
-40 -292 0
-41 -293 0
-42 -294 0
-43 -79 0
-44 -80 0
-45 -81 0
-43 -94 0
-44 -95 0
-45 -96 0
-43 -127 0
-44 -128 0
-45 -129 0
-43 -262 0
-44 -263 0
-45 -264 0
-43 -268 0
-44 -269 0
-45 -270 0
-46 -118 0
-47 -119 0
-48 -120 0
-46 -148 0
-47 -149 0
-48 -150 0
-46 -235 0
-47 -236 0
-48 -237 0
-46 -247 0
-47 -248 0
-48 -249 0
-49 -160 0
-50 -161 0
-51 -162 0
-49 -277 0
-50 -278 0
-51 -279 0
-49 -286 0
-50 -287 0
-51 -288 0
-52 -88 0
-53 -89 0
-54 -90 0
-52 -91 0
-53 -92 0
-54 -93 0
-52 -103 0
-53 -104 0
-54 -105 0
-52 -274 0
-53 -275 0
-54 -276 0
-52 -292 0
-53 -293 0
-54 -294 0
-55 -142 0
-56 -143 0
-57 -144 0
-55 -172 0
-56 -173 0
-57 -174 0
-55 -205 0
-56 -206 0
-57 -207 0
-55 -232 0
-56 -233 0
-57 -234 0
-58 -97 0
-59 -98 0
-60 -99 0
-58 -112 0
-59 -113 0
-60 -114 0
-58 -259 0
-59 -260 0
-60 -261 0
-58 -286 0
-59 -287 0
-60 -288 0
-61 -85 0
-62 -86 0
-63 -87 0
-61 -124 0
-62 -125 0
-63 -126 0
-61 -151 0
-62 -152 0
-63 -153 0
-61 -187 0
-62 -188 0
-63 -189 0
-64 -181 0
-65 -182 0
-66 -183 0
-64 -190 0
-65 -191 0
-66 -192 0
-64 -247 0
-65 -248 0
-66 -249 0
-64 -250 0
-65 -251 0
-66 -252 0
-64 -283 0
-65 -284 0
-66 -285 0
-67 -160 0
-68 -161 0
-69 -162 0
-67 -211 0
-68 -212 0
-69 -213 0
-67 -223 0
-68 -224 0
-69 -225 0
-67 -232 0
-68 -233 0
-69 -234 0
-70 -154 0
-71 -155 0
-72 -156 0
-70 -196 0
-71 -197 0
-72 -198 0
-70 -280 0
-71 -281 0
-72 -282 0
-70 -289 0
-71 -290 0
-72 -291 0
-73 -91 0
-74 -92 0
-75 -93 0
-73 -115 0
-74 -116 0
-75 -117 0
-73 -241 0
-74 -242 0
-75 -243 0
-73 -271 0
-74 -272 0
-75 -273 0
-73 -283 0
-74 -284 0
-75 -285 0
-76 -103 0
-77 -104 0
-78 -105 0
-76 -169 0
-77 -170 0
-78 -171 0
-76 -253 0
-77 -254 0
-78 -255 0
-76 -289 0
-77 -290 0
-78 -291 0
-79 -94 0
-80 -95 0
-81 -96 0
-79 -127 0
-80 -128 0
-81 -129 0
-79 -151 0
-80 -152 0
-81 -153 0
-79 -220 0
-80 -221 0
-81 -222 0
-82 -112 0
-83 -113 0
-84 -114 0
-82 -136 0
-83 -137 0
-84 -138 0
-82 -229 0
-83 -230 0
-84 -231 0
-82 -277 0
-83 -278 0
-84 -279 0
-85 -229 0
-86 -230 0
-87 -231 0
-85 -238 0
-86 -239 0
-87 -240 0
-85 -274 0
-86 -275 0
-87 -276 0
-85 -277 0
-86 -278 0
-87 -279 0
-88 -97 0
-89 -98 0
-90 -99 0
-88 -208 0
-89 -209 0
-90 -210 0
-88 -268 0
-89 -269 0
-90 -270 0
-88 -277 0
-89 -278 0
-90 -279 0
-91 -208 0
-92 -209 0
-93 -210 0
-91 -226 0
-92 -227 0
-93 -228 0
-91 -259 0
-92 -260 0
-93 -261 0
-94 -175 0
-95 -176 0
-96 -177 0
-94 -256 0
-95 -257 0
-96 -258 0
-94 -262 0
-95 -263 0
-96 -264 0
-97 -148 0
-98 -149 0
-99 -150 0
-97 -256 0
-98 -257 0
-99 -258 0
-97 -280 0
-98 -281 0
-99 -282 0
-100 -142 0
-101 -143 0
-102 -144 0
-100 -160 0
-101 -161 0
-102 -162 0
-100 -244 0
-101 -245 0
-102 -246 0
-103 -175 0
-104 -176 0
-105 -177 0
-103 -196 0
-104 -197 0
-105 -198 0
-103 -223 0
-104 -224 0
-105 -225 0
-106 -112 0
-107 -113 0
-108 -114 0
-106 -130 0
-107 -131 0
-108 -132 0
-106 -142 0
-107 -143 0
-108 -144 0
-106 -163 0
-107 -164 0
-108 -165 0
-106 -169 0
-107 -170 0
-108 -171 0
-109 -184 0
-110 -185 0
-111 -186 0
-109 -187 0
-110 -188 0
-111 -189 0
-109 -226 0
-110 -227 0
-111 -228 0
-109 -259 0
-110 -260 0
-111 -261 0
-109 -268 0
-110 -269 0
-111 -270 0
-112 -136 0
-113 -137 0
-114 -138 0
-112 -163 0
-113 -164 0
-114 -165 0
-115 -121 0
-116 -122 0
-117 -123 0
-115 -181 0
-116 -182 0
-117 -183 0
-115 -187 0
-116 -188 0
-117 -189 0
-115 -193 0
-116 -194 0
-117 -195 0
-118 -133 0
-119 -134 0
-120 -135 0
-118 -172 0
-119 -173 0
-120 -174 0
-118 -214 0
-119 -215 0
-120 -216 0
-118 -235 0
-119 -236 0
-120 -237 0
-121 -157 0
-122 -158 0
-123 -159 0
-121 -184 0
-122 -185 0
-123 -186 0
-121 -214 0
-122 -215 0
-123 -216 0
-121 -220 0
-122 -221 0
-123 -222 0
-124 -157 0
-125 -158 0
-126 -159 0
-124 -172 0
-125 -173 0
-126 -174 0
-124 -211 0
-125 -212 0
-126 -213 0
-124 -226 0
-125 -227 0
-126 -228 0
-127 -151 0
-128 -152 0
-129 -153 0
-127 -199 0
-128 -200 0
-129 -201 0
-127 -229 0
-128 -230 0
-129 -231 0
-130 -133 0
-131 -134 0
-132 -135 0
-130 -145 0
-131 -146 0
-132 -147 0
-130 -223 0
-131 -224 0
-132 -225 0
-133 -280 0
-134 -281 0
-135 -282 0
-136 -148 0
-137 -149 0
-138 -150 0
-136 -253 0
-137 -254 0
-138 -255 0
-136 -256 0
-137 -257 0
-138 -258 0
-139 -187 0
-140 -188 0
-141 -189 0
-139 -193 0
-140 -194 0
-141 -195 0
-139 -235 0
-140 -236 0
-141 -237 0
-139 -241 0
-140 -242 0
-141 -243 0
-139 -292 0
-140 -293 0
-141 -294 0
-142 -259 0
-143 -260 0
-144 -261 0
-145 -151 0
-146 -152 0
-147 -153 0
-145 -181 0
-146 -182 0
-147 -183 0
-145 -286 0
-146 -287 0
-147 -288 0
-145 -289 0
-146 -290 0
-147 -291 0
-148 -178 0
-149 -179 0
-150 -180 0
-148 -265 0
-149 -266 0
-150 -267 0
-154 -229 0
-155 -230 0
-156 -231 0
-154 -283 0
-155 -284 0
-156 -285 0
-157 -181 0
-158 -182 0
-159 -183 0
-157 -190 0
-158 -191 0
-159 -192 0
-157 -196 0
-158 -197 0
-159 -198 0
-160 -196 0
-161 -197 0
-162 -198 0
-163 -241 0
-164 -242 0
-165 -243 0
-163 -253 0
-164 -254 0
-165 -255 0
-166 -172 0
-167 -173 0
-168 -174 0
-166 -205 0
-167 -206 0
-168 -207 0
-166 -211 0
-167 -212 0
-168 -213 0
-166 -238 0
-167 -239 0
-168 -240 0
-166 -271 0
-167 -272 0
-168 -273 0
-169 -184 0
-170 -185 0
-171 -186 0
-169 -217 0
-170 -218 0
-171 -219 0
-169 -247 0
-170 -248 0
-171 -249 0
-172 -199 0
-173 -200 0
-174 -201 0
-175 -214 0
-176 -215 0
-177 -216 0
-175 -223 0
-176 -224 0
-177 -225 0
-175 -244 0
-176 -245 0
-177 -246 0
-178 -181 0
-179 -182 0
-180 -183 0
-178 -250 0
-179 -251 0
-180 -252 0
-190 -208 0
-191 -209 0
-192 -210 0
-190 -283 0
-191 -284 0
-192 -285 0
-193 -202 0
-194 -203 0
-195 -204 0
-193 -235 0
-194 -236 0
-195 -237 0
-196 -241 0
-197 -242 0
-198 -243 0
-199 -220 0
-200 -221 0
-201 -222 0
-202 -244 0
-203 -245 0
-204 -246 0
-202 -289 0
-203 -290 0
-204 -291 0
-202 -292 0
-203 -293 0
-204 -294 0
-205 -214 0
-206 -215 0
-207 -216 0
-208 -280 0
-209 -281 0
-210 -282 0
-211 -271 0
-212 -272 0
-213 -273 0
-214 -277 0
-215 -278 0
-216 -279 0
-217 -220 0
-218 -221 0
-219 -222 0
-217 -253 0
-218 -254 0
-219 -255 0
-217 -268 0
-218 -269 0
-219 -270 0
-223 -253 0
-224 -254 0
-225 -255 0
-226 -268 0
-227 -269 0
-228 -270 0
-229 -283 0
-230 -284 0
-231 -285 0
-232 -238 0
-233 -239 0
-234 -240 0
-232 -271 0
-233 -272 0
-234 -273 0
-238 -271 0
-239 -272 0
-240 -273 0
-241 -256 0
-242 -257 0
-243 -258 0
-247 -250 0
-248 -251 0
-249 -252 0
-250 -274 0
-251 -275 0
-252 -276 0
-262 -265 0
-263 -266 0
-264 -267 0
-265 -280 0
-266 -281 0
-267 -282 0
